100
1000
200
198
198
197
197
197
197
195
195
195
195
195
195
195
194
194
193
192
192
191
190
189
189
189
188
187
187
187
186
185
185
184
184
183
182
182
182
181
181
180
180
180
179
179
178
178
178
176
175
175
175
175
174
174
174
173
172
171
170
170
169
169
168
168
168
168
167
167
167
167
166
166
166
165
164
163
163
163
163
162
162
161
161
161
159
159
158
158
157
157
156
156
156
155
152
151
151
151
151
150
